NAME          
ROWS
 N  OBJ
 L  c1
 L  c2
 L  c3
COLUMNS
    MARKER    'MARKER'                 'INTORG'
    x[1]      c1        322
    x[1]      c2        366
    x[1]      c3        24
    x[1]      OBJ       -834
    x[2]      c1        637
    x[2]      c2        353
    x[2]      c3        579
    x[2]      OBJ       -642
    x[3]      c1        636
    x[3]      c2        408
    x[3]      c3        426
    x[3]      OBJ       -893
    x[4]      c1        74
    x[4]      c2        301
    x[4]      c3        301
    x[4]      OBJ       -239
    x[5]      c1        978
    x[5]      c2        632
    x[5]      c3        800
    x[5]      OBJ       -676
    x[6]      c1        72
    x[6]      c2        858
    x[6]      c3        975
    x[6]      OBJ       -45
    x[7]      c1        314
    x[7]      c2        744
    x[7]      c3        194
    x[7]      OBJ       -685
    x[8]      c1        439
    x[8]      c2        539
    x[8]      c3        476
    x[8]      OBJ       -218
    x[9]      c1        948
    x[9]      c2        831
    x[9]      c3        959
    x[9]      OBJ       -627
    x[10]     c1        252
    x[10]     c2        462
    x[10]     c3        89
    x[10]     OBJ       -958
    x[11]     c1        942
    x[11]     c2        916
    x[11]     c3        93
    x[11]     OBJ       -639
    x[12]     c1        198
    x[12]     c2        94
    x[12]     c3        507
    x[12]     OBJ       -634
    x[13]     c1        203
    x[13]     c2        565
    x[13]     c3        322
    x[13]     OBJ       -386
    x[14]     c1        681
    x[14]     c2        455
    x[14]     c3        243
    x[14]     OBJ       -111
    x[15]     c1        649
    x[15]     c2        54
    x[15]     c3        909
    x[15]     OBJ       -574
    x[16]     c1        583
    x[16]     c2        456
    x[16]     c3        795
    x[16]     OBJ       -769
    x[17]     c1        774
    x[17]     c2        41
    x[17]     c3        716
    x[17]     OBJ       -796
    x[18]     c1        346
    x[18]     c2        914
    x[18]     c3        748
    x[18]     OBJ       -746
    x[19]     c1        875
    x[19]     c2        159
    x[19]     c3        434
    x[19]     OBJ       -663
    x[20]     c1        846
    x[20]     c2        912
    x[20]     c3        45
    x[20]     OBJ       -542
    x[21]     c1        565
    x[21]     c2        135
    x[21]     c3        318
    x[21]     OBJ       -77
    x[22]     c1        319
    x[22]     c2        884
    x[22]     c3        277
    x[22]     OBJ       -186
    x[23]     c1        271
    x[23]     c2        595
    x[23]     c3        966
    x[23]     OBJ       -737
    x[24]     c1        994
    x[24]     c2        517
    x[24]     c3        927
    x[24]     OBJ       -31
    x[25]     c1        264
    x[25]     c2        486
    x[25]     c3        156
    x[25]     OBJ       -260
RHS
    rhs       c1        6591
    rhs       c2        6338
    rhs       c3        6140
RANGES
BOUNDS
 BV bounds    x[1]
 BV bounds    x[2]
 BV bounds    x[3]
 BV bounds    x[4]
 BV bounds    x[5]
 BV bounds    x[6]
 BV bounds    x[7]
 BV bounds    x[8]
 BV bounds    x[9]
 BV bounds    x[10]
 BV bounds    x[11]
 BV bounds    x[12]
 BV bounds    x[13]
 BV bounds    x[14]
 BV bounds    x[15]
 BV bounds    x[16]
 BV bounds    x[17]
 BV bounds    x[18]
 BV bounds    x[19]
 BV bounds    x[20]
 BV bounds    x[21]
 BV bounds    x[22]
 BV bounds    x[23]
 BV bounds    x[24]
 BV bounds    x[25]
ENDATA
